
Gurobi 9.5.1 (linux64) logging started Sun 07 Aug 2022 01:24:22 PM MST

Set parameter LogFile to value "/home/local/ASUAD/kmajd1/NNRepLayer_v2/demos/walking_example/dynamic_constraint/repair_net/logs/opt_log_8_7_2022_13_15_45.log"
Gurobi Optimizer version 9.5.1 build v9.5.1rc2 (linux64)
Thread count: 48 physical cores, 96 logical processors, using up to 48 threads
Optimize a model with 137514 rows, 85903 columns and 2092074 nonzeros
Model fingerprint: 0xde3f0279
Model has 270 quadratic objective terms
Variable types: 51343 continuous, 34560 integer (34560 binary)
Coefficient statistics:
  Matrix range     [3e-05, 2e+02]
  Objective range  [9e-03, 2e+00]
  QObjective range [7e-02, 7e-02]
  Bounds range     [1e-04, 7e+02]
  RHS range        [2e-05, 2e+02]

Concurrent MIP optimizer: 3 concurrent instances (16 threads per instance)

Presolve removed 1308 rows and 768 columns (presolve time = 5s) ...
Presolve removed 2076 rows and 768 columns (presolve time = 10s) ...
Presolve removed 2076 rows and 768 columns
Presolve time: 14.90s
Presolved: 135438 rows, 85135 columns, 2088482 nonzeros
Presolved model has 270 quadratic objective terms
Variable types: 50575 continuous, 34560 integer (34560 binary)
Root relaxation presolve removed 34560 rows and 34560 columns (presolve time = 5s) ...
Root relaxation presolve removed 34560 rows and 34560 columns (presolve time = 10s) ...
Root relaxation presolve removed 34560 rows and 34560 columns (presolve time = 15s) ...
Root relaxation presolve removed 34560 rows and 34560 columns (presolve time = 20s) ...
Root relaxation presolve removed 34560 rows and 34560 columns
Root relaxation presolved: 100878 rows, 50575 columns, 1984802 nonzeros
Root relaxation presolved model has 270 quadratic objective terms


Root simplex log...

Iteration    Objective       Primal Inf.    Dual Inf.      Time
       0    2.8035349e+01   0.000000e+00   0.000000e+00     43s
   17673    2.8035349e+01   4.112668e+03   0.000000e+00     45s
   41331    2.8035349e+01   0.000000e+00   0.000000e+00     49s
   41331    2.8035349e+01   0.000000e+00   0.000000e+00     49s

Root relaxation: objective 2.803535e+01, 41331 iterations, 29.92 seconds (36.11 work units)

    Nodes    |    Current Node    |     Objective Bounds      |     Work
 Expl Unexpl |  Obj  Depth IntInf | Incumbent    BestBd   Gap | It/Node Time

     0     0      -    -    -              -   28.03535      -     -   57s
     0     0      -    -    -              -   28.03535      -     -  196s
     0     2      -    -    -              -   28.03535      -     -  414s
     1     4      -    -    -              -   28.03535      -     -  466s
     3     8      -    -    -              -   28.03535      -     -  602s
     7    16      -    -    -              -   28.03535      -     -  620s
    15    32      -    -    -              -   28.03535      -     -  655s
    47    64      -    -    -              -   28.03535      -     -  681s
    63    80      -    -    -              -   28.03535      -     -  685s
    79    96      -    -    -              -   28.03535      -     -  695s
   121   138      -    -    -              -   28.03535      -     -  700s
   153   183      -    -    -              -   28.03535      -     -  707s
   182   207      -    -    -              -   28.03535      -     -  720s
   235   264      -    -    -              -   28.03535      -     -  736s
   263   296      -    -    -              -   28.03535      -     -  741s
   295   327      -    -    -              -   28.03535      -     -  745s
   326   358      -    -    -              -   28.03535      -     -  750s
   357   389      -    -    -              -   28.03535      -     -  760s
   388   421      -    -    -              -   28.03535      -     -  783s
   420   460      -    -    -              -   28.03535      -     -  787s
   459   499      -    -    -              -   28.03535      -     -  796s
   498   543      -    -    -              -   28.03535      -     -  806s
   542   587      -    -    -              -   28.03535      -     -  812s
   586   632      -    -    -              -   28.03535      -     -  817s
   631   690      -    -    -              -   28.03535      -     -  823s
   689   762      -    -    -              -   28.03535      -     -  828s
   761   849      -    -    -              -   28.03535      -     -  836s
   848   939      -    -    -              -   28.03535      -     -  856s
   938  1024      -    -    -              -   28.03535      -     -  865s
  1023  1116      -    -    -              -   28.03535      -     -  875s
  1115  1217      -    -    -              -   28.03535      -     -  882s
  1216  1318      -    -    -              -   28.03535      -     -  885s
  1317  1416      -    -    -              -   28.03535      -     -  890s
  1415  1510      -    -    -              -   28.03535      -     -  900s
  1509  1620      -    -    -              -   28.03535      -     -  906s
  1619  1714      -    -    -              -   28.03535      -     -  910s
  1713  1842      -    -    -              -   28.03535      -     -  917s
  1841  1947      -    -    -              -   28.03535      -     -  922s
  1946  2096      -    -    -              -   28.03535      -     -  928s
  2095  2224      -    -    -              -   28.03535      -     -  936s
  2223  2375      -    -    -              -   28.03535      -     - 1008s
  2374  2526      -    -    -              -   28.03535      -     - 1016s
  2525  2675      -    -    -              -   28.03535      -     - 1023s
  2674  2839      -    -    -              -   28.03535      -     - 1029s
  2838  2994      -    -    -              -   28.03535      -     - 1038s
  2993  3159      -    -    -              -   28.03535      -     - 1048s
  3158  3312      -    -    -              -   28.03535      -     - 1056s
  3311  3471      -    -    -              -   28.03535      -     - 1067s
  3470  3680      -    -    -              -   28.03535      -     - 1076s
  3679  3879      -    -    -              -   28.03535      -     - 1086s
  3878  4117      -    -    -              -   28.03535      -     - 1098s
  4116  4351      -    -    -              -   28.03535      -     - 1109s
  4350  4581      -    -    -              -   28.03535      -     - 1122s
  4580  4793      -    -    -              -   28.03535      -     - 1134s
  4792  4947      -    -    -              -   28.03535      -     - 1301s
  4946  5230      -    -    -              -   28.03535      -     - 1313s
  5229  5534      -    -    -              -   28.03535      -     - 1329s
  5533  5830      -    -    -              -   28.03535      -     - 1344s
  5829  6156      -    -    -              -   28.03535      -     - 1361s
  6155  6472      -    -    -              -   28.03535      -     - 1374s
  6471  6753      -    -    -              -   28.03535      -     - 1386s
  6752  7094      -    -    -              -   28.03535      -     - 1402s
  7093  7437      -    -    -              -   28.03535      -     - 1419s
  7436  7814      -    -    -              -   28.03535      -     - 1434s
  7813  8207      -    -    -              -   28.03535      -     - 1449s
  8206  8605      -    -    -              -   28.03535      -     - 1473s
  8604  8977      -    -    -              -   28.03535      -     - 1489s
  8976  9341      -    -    -              -   28.03535      -     - 1568s
  9340  9712      -    -    -              -   28.03535      -     - 1587s
  9711 10119      -    -    -              -   28.03535      -     - 1631s
 10118 10481      -    -    -              -   28.03535      -     - 1645s
 10481 10482      -    -    -              -   28.03535      -     - 1664s
 10482 10483      -    -    -              -   28.03535      -     - 1668s
 10483 10483      -    -    -              -   28.03535      -     - 1814s
 10485  9960      -    -    -       31.13874   28.03535  10.0%     - 2190s
 10486  9963      -    -    -       31.13874   28.03535  10.0%     - 2300s
 10488  9967      -    -    -       31.13874   28.03535  10.0%     - 2316s
 10492  9973      -    -    -       31.13874   28.03535  10.0%     - 2337s
 10500  9987      -    -    -       31.13874   28.03535  10.0%     - 2396s
 10516  9997      -    -    -       31.13874   28.03535  10.0%     - 2412s
 10532 10008      -    -    -       31.13874   28.03535  10.0%     - 2456s
 10548 10019      -    -    -       31.13874   28.03535  10.0%     - 2488s
 10564 10029      -    -    -       31.13874   28.03535  10.0%     - 4075s
 10580  9084      -    -    -       31.13208   28.03535  9.95%     - 4152s
 10611  9104      -    -    -       31.13208   28.03535  9.95%     - 4160s
 10641  9124      -    -    -       31.13208   28.03535  9.95%     - 4166s
 10671  9150      -    -    -       31.13208   28.03535  9.95%     - 4199s
 10707  9182      -    -    -       31.13208   28.03535  9.95%     - 4207s
 10751  9205      -    -    -       31.13208   28.03535  9.95%     - 4213s
 10789  9242      -    -    -       31.13208   28.03535  9.95%     - 4219s
 10839  9248      -    -    -       31.13208   28.03535  9.95%     - 4628s
 10861  9309      -    -    -       31.13208   28.03535  9.95%     - 4669s
 10930  9302      -    -    -       31.10740   28.03535  9.88%     - 6351s
 10946  8932      -    -    -       31.10740   28.03535  9.88%     - 6368s
 11031  8991      -    -    -       31.10740   28.03535  9.88%     - 6382s
 11118  9042      -    -    -       31.10740   28.03535  9.88%     - 6408s
 11198  9096      -    -    -       31.10740   28.03535  9.88%     - 6421s
 11279  9165      -    -    -       31.10740   28.03535  9.88%     - 6434s
 11375  9229      -    -    -       31.10740   28.03535  9.88%     - 6471s
 11471  9286      -    -    -       31.10740   28.03535  9.88%     - 6510s
 11560  9369      -    -    -       31.10740   28.03535  9.88%     - 6528s
 11673  9452      -    -    -       31.10740   28.03535  9.88%     - 6542s
 11793  9535      -    -    -       31.10740   28.03535  9.88%     - 6558s
 11916  9616      -    -    -       31.10740   28.03535  9.88%     - 6603s
 12038  9648      -    -    -       31.10608   28.03535  9.87%     - 7509s
 12111  9355      -    -    -       31.10608   28.03535  9.87%     - 7524s
 12269  9457      -    -    -       31.10608   28.03535  9.87%     - 7536s
 12424  9577      -    -    -       31.10608   28.03535  9.87%     - 7549s
 12596  9698      -    -    -       31.10608   28.03535  9.87%     - 7562s
 12774  9821      -    -    -       31.10608   28.03535  9.87%     - 7576s
 12956  9854      -    -    -       31.10608   28.03535  9.87%     - 7719s
 13050 10044      -    -    -       31.10608   28.03535  9.87%     - 7734s
 13271 10190      -    -    -       31.10608   28.03535  9.87%     - 7752s
 13491 10347      -    -    -       31.10608   28.03535  9.87%     - 7769s
 13721 10486      -    -    -       31.10608   28.03535  9.87%     - 7800s
 13937 10654      -    -    -       31.10608   28.03535  9.87%     - 7817s
 14177 10839      -    -    -       31.10608   28.03535  9.87%     - 7849s
 14442 10985      -    -    -       31.10608   28.03535  9.87%     - 7900s
 14676 11181      -    -    -       31.10608   28.03535  9.87%     - 7933s
 14950 11191      -    -    -       31.10608   28.03535  9.87%     - 8097s
 15052 11474      -    -    -       31.10608   28.03535  9.87%     - 8128s
 15369 11707      -    -    -       31.10608   28.03535  9.87%     - 8159s
 15707 11921      -    -    -       31.10608   28.03535  9.87%     - 8190s
 16034 12147      -    -    -       31.10608   28.03535  9.87%     - 8223s
 16369 12364      -    -    -       31.10608   28.03535  9.87%     - 8297s
 16698 12642      -    -    -       31.10608   28.03535  9.87%     - 8333s
 17085 12892      -    -    -       31.10608   28.03535  9.87%     - 8373s
 17464 13107      -    -    -       31.10608   28.03535  9.87%     - 8462s
 17806 13421      -    -    -       31.10608   28.03535  9.87%     - 8504s
 18234 13723      -    -    -       31.10608   28.03535  9.87%     - 8548s
 18678 14030      -    -    -       31.10608   28.03535  9.87%     - 8594s
 19133 14354      -    -    -       31.10608   28.03535  9.87%     - 8635s
 19609 14686      -    -    -       31.10608   28.03535  9.87%     - 8686s
 20100 15046      -    -    -       31.10608   28.03535  9.87%     - 8739s
 20623 15390      -    -    -       31.10608   28.03535  9.87%     - 8786s
 21142 17122      -    -    -       31.10608   28.03535  9.87%     - 9153s
 23057 17070      -    -    -       31.10608   28.03535  9.87%     - 9301s
 23651 17623      -    -    -       31.10608   28.03535  9.87%     - 9370s
 24408 17743      -    -    -       31.10608   28.03535  9.87%     - 9497s
 24782 18484      -    -    -       31.10608   28.03535  9.87%     - 9575s
 25652 18210      -    -    -       31.10608   28.03535  9.87%     - 10517s
 25668 18388      -    -    -       31.10608   28.03535  9.87%     - 10675s
 26264 18720      -    -    -       31.10608   28.03535  9.87%     - 10848s
 26799 19282      -    -    -       31.10608   28.03535  9.87%     - 10994s
 27551 19403      -    -    -       31.10608   28.03535  9.87%     - 11159s
 27931 20030      -    -    -       31.10608   28.03535  9.87%     - 11463s
 28687 20774      -    -    -       31.10608   28.03535  9.87%     - 11648s
 29687 21360      -    -    -       31.10608   28.03535  9.87%     - 11811s
 30608 21850      -    -    -       31.10608   28.03535  9.87%     - 11977s
 31413 22221      -    -    -       31.10608   28.03535  9.87%     - 12174s
 32052 22716      -    -    -       31.10608   28.03535  9.87%     - 12352s
 32760 23200      -    -    -       31.10608   28.03535  9.87%     - 12682s
 33480 23184      -    -    -       31.10608   28.03535  9.87%     - 13194s
 33706 23789      -    -    -       31.10608   28.03535  9.87%     - 13537s
 34373 25140      -    -    -       31.10042   28.03535  9.86%     - 13840s
 35734 25926      -    -    -       31.10042   28.03535  9.86%     - 14150s
 36530 26783      -    -    -       31.10042   28.03535  9.86%     - 14357s
 37391 27606      -    -    -       31.10042   28.03535  9.86%     - 14536s
 38222 27858      -    -    -       31.10042   28.03535  9.86%     - 14826s
 38474 28794      -    -    -       31.10042   28.03535  9.86%     - 15019s
 39416 29037      -    -    -       31.10042   28.03535  9.86%     - 16060s
 39661 30420      -    -    -       31.10042   28.03535  9.86%     - 18846s
 41058 30825      -    -    -       31.10042   28.03535  9.86%     - 20722s
 41477 30841      -    -    -       31.10042   28.03535  9.86%     - 24258s
 41493 31408      -    -    -       31.10042   28.03535  9.86%     - 25370s
 42086 31925      -    -    -       31.10042   28.03535  9.86%     - 27273s
 42623 31941      -    -    -       31.08303   28.03535  9.80%     - 36927s
 42639 33266      -    -    -       31.08303   28.03535  9.80%     - 40578s
 43992 34846      -    -    -       31.08303   28.03535  9.80%     - 43401s
 45600 35218      -    -    -       31.08303   28.03535  9.80%     - 46420s
 45980 36917      -    -    -       31.05440   28.03535  9.72%     - 48788s
 47697 37288      -    -    -       31.05440   28.03545  9.72%     - 52631s
 48068 38187      -    -    -       31.05440   28.03545  9.72%     - 55039s
 48975 39777      -    -    -       31.05440   28.03545  9.72%     - 56480s
 50583 40151      -    -    -       31.02268   28.03545  9.63%     - 63327s
 50959 40556      -    -    -       30.99687   28.03545  9.55%     - 65362s
 51368 42077      -    -    -       30.80356   28.03545  8.99%     - 67275s
 52905 42575      -    -    -       30.80356   28.03545  8.99%     - 68878s
 53415 42966      -    -    -       30.80292   28.03545  8.98%     - 71454s
 53818 44347      -    -    -       30.80292   28.03545  8.98%     - 73615s
 55207 44547      -    -    -       30.80292   28.03545  8.98%     - 74437s

Explored 55409 nodes (184655121 simplex iterations) in 74450.40 seconds (94912.65 work units)
Thread count was 16 (of 96 available processors)

Solution count 10: 30.8029 30.8029 30.8036 ... 31.0544 

Solve interrupted
Best objective 3.080291594850e+01, best bound 2.803545326895e+01, gap 8.9844%
